p edge 500 117
e 121 156 1.000000
e 53 121 1.000000
e 53 156 1.000000
e 203 370 1.000000
e 203 246 1.000000
e 246 370 1.000000
e 47 80 1.000000
e 35 80 1.000000
e 35 47 1.000000
e 11 206 1.000000
e 11 282 1.000000
e 206 282 1.000000
e 149 470 1.000000
e 149 410 1.000000
e 410 470 1.000000
e 31 392 1.000000
e 31 114 1.000000
e 114 392 1.000000
e 267 275 1.000000
e 185 267 1.000000
e 185 275 1.000000
e 142 400 1.000000
e 89 142 1.000000
e 89 400 1.000000
e 55 424 1.000000
e 55 135 1.000000
e 135 424 1.000000
e 110 483 1.000000
e 110 475 1.000000
e 475 483 1.000000
e 14 425 1.000000
e 14 329 1.000000
e 329 425 1.000000
e 134 414 1.000000
e 134 410 1.000000
e 410 414 1.000000
e 100 140 1.000000
e 85 140 1.000000
e 85 100 1.000000
e 159 322 1.000000
e 149 159 1.000000
e 149 322 1.000000
e 445 492 1.000000
e 375 445 1.000000
e 375 492 1.000000
e 438 451 1.000000
e 435 438 1.000000
e 435 451 1.000000
e 191 433 1.000000
e 45 191 1.000000
e 45 433 1.000000
e 311 344 1.000000
e 173 311 1.000000
e 173 344 1.000000
e 199 260 1.000000
e 128 199 1.000000
e 128 260 1.000000
e 92 127 1.000000
e 92 243 1.000000
e 127 243 1.000000
e 144 484 1.000000
e 46 144 1.000000
e 46 484 1.000000
e 419 479 1.000000
e 419 444 1.000000
e 444 479 1.000000
e 281 483 1.000000
e 281 431 1.000000
e 431 483 1.000000
e 154 466 1.000000
e 4 154 1.000000
e 4 466 1.000000
e 150 294 1.000000
e 150 361 1.000000
e 294 361 1.000000
e 160 452 1.000000
e 160 435 1.000000
e 435 452 1.000000
e 261 392 1.000000
e 100 392 1.000000
e 100 261 1.000000
e 212 217 1.000000
e 212 307 1.000000
e 217 307 1.000000
e 148 221 1.000000
e 148 232 1.000000
e 221 232 1.000000
e 83 120 1.000000
e 83 157 1.000000
e 120 157 1.000000
e 133 417 1.000000
e 133 409 1.000000
e 409 417 1.000000
e 23 42 1.000000
e 23 24 1.000000
e 24 42 1.000000
e 237 321 1.000000
e 144 237 1.000000
e 144 321 1.000000
e 266 274 1.000000
e 266 332 1.000000
e 274 332 1.000000
e 242 359 1.000000
e 176 242 1.000000
e 176 359 1.000000
e 75 345 1.000000
e 75 101 1.000000
e 101 345 1.000000
e 35 212 1.000000
e 35 468 1.000000
e 212 468 1.000000
e 104 326 1.000000
e 104 324 1.000000
e 324 326 1.000000
e 142 226 1.000000
e 95 226 1.000000
e 95 142 1.000000
